# This is a comment. Comments start with #
SECTION_HORIZON
# All instances start on a Monday
# The horizon length in days:
28

SECTION_SHIFTS
# ShiftID_12, Length in mins, Shifts which cannot follow this shift | separated
a1_12,480,
a2_12,480,
a3_12,480,
d1_12,480,a1_12|a2_12|a3_12
d2_12,480,a1_12|a2_12|a3_12
d3_12,480,a1_12|a2_12|a3_12
p1_12,480,a1_12|a2_12|a3_12|d1_12|d2_12|d3_12
p2_12,480,a1_12|a2_12|a3_12|d1_12|d2_12|d3_12
p3_12,480,a1_12|a2_12|a3_12|d1_12|d2_12|d3_12
n1_12,480,a1_12|a2_12|a3_12|d1_12|d2_12|d3_12|p1_12|p2_12|p3_12

SECTION_STAFF
# ID_12, MaxShifts, MaxTotalMinutes, MinTotalMinutes, MaxConsecutiveShifts, MinConsecutiveShifts, MinConsecutiveDaysOff, MaxWeekends
A_12,a1_12=28|a2_12=28|a3_12=28|d1_12=28|d2_12=28|d3_12=0|p1_12=0|p2_12=28|p3_12=28|n1_12=0,8640,7560,5,2,2,2
B_12,a1_12=28|a2_12=28|a3_12=0|d1_12=28|d2_12=0|d3_12=28|p1_12=28|p2_12=28|p3_12=0|n1_12=0,8640,7560,5,2,2,2
C_12,a1_12=0|a2_12=0|a3_12=28|d1_12=0|d2_12=28|d3_12=28|p1_12=28|p2_12=28|p3_12=0|n1_12=0,8640,7560,5,2,2,2
D_12,a1_12=28|a2_12=28|a3_12=28|d1_12=28|d2_12=28|d3_12=28|p1_12=0|p2_12=28|p3_12=28|n1_12=0,8640,7560,5,2,2,2
E_12,a1_12=28|a2_12=0|a3_12=28|d1_12=28|d2_12=28|d3_12=28|p1_12=28|p2_12=28|p3_12=28|n1_12=4,8640,7560,5,2,2,2
F_12,a1_12=28|a2_12=0|a3_12=28|d1_12=28|d2_12=28|d3_12=0|p1_12=28|p2_12=28|p3_12=0|n1_12=4,8640,7560,5,2,2,2
G_12,a1_12=28|a2_12=0|a3_12=28|d1_12=28|d2_12=28|d3_12=28|p1_12=28|p2_12=28|p3_12=0|n1_12=0,8640,7560,5,2,2,2
H_12,a1_12=28|a2_12=28|a3_12=28|d1_12=28|d2_12=0|d3_12=0|p1_12=28|p2_12=28|p3_12=28|n1_12=0,8640,7560,5,2,2,2
I_12,a1_12=0|a2_12=28|a3_12=28|d1_12=0|d2_12=28|d3_12=28|p1_12=0|p2_12=28|p3_12=0|n1_12=4,8640,7560,5,2,2,2
J_12,a1_12=28|a2_12=28|a3_12=28|d1_12=0|d2_12=28|d3_12=28|p1_12=28|p2_12=0|p3_12=28|n1_12=4,8640,7560,5,2,2,2
K_12,a1_12=0|a2_12=28|a3_12=28|d1_12=0|d2_12=28|d3_12=28|p1_12=0|p2_12=28|p3_12=0|n1_12=0,8640,7560,5,2,2,2
L_12,a1_12=28|a2_12=0|a3_12=28|d1_12=0|d2_12=28|d3_12=0|p1_12=0|p2_12=28|p3_12=0|n1_12=4,8640,7560,5,2,2,2
M_12,a1_12=0|a2_12=28|a3_12=28|d1_12=0|d2_12=28|d3_12=28|p1_12=28|p2_12=28|p3_12=0|n1_12=0,8640,7560,5,2,2,2
N_12,a1_12=28|a2_12=0|a3_12=28|d1_12=28|d2_12=28|d3_12=28|p1_12=28|p2_12=0|p3_12=28|n1_12=4,8640,7560,5,2,2,2
O_12,a1_12=28|a2_12=28|a3_12=0|d1_12=0|d2_12=28|d3_12=0|p1_12=0|p2_12=28|p3_12=28|n1_12=4,8640,7560,5,2,2,2
P_12,a1_12=0|a2_12=0|a3_12=28|d1_12=28|d2_12=0|d3_12=0|p1_12=0|p2_12=28|p3_12=0|n1_12=4,8640,7560,5,2,2,2
Q_12,a1_12=0|a2_12=0|a3_12=28|d1_12=0|d2_12=28|d3_12=0|p1_12=28|p2_12=0|p3_12=28|n1_12=0,8640,7560,5,2,2,2
R_12,a1_12=28|a2_12=28|a3_12=28|d1_12=0|d2_12=0|d3_12=28|p1_12=28|p2_12=28|p3_12=0|n1_12=0,8640,7560,5,2,2,2
S_12,a1_12=28|a2_12=0|a3_12=28|d1_12=0|d2_12=28|d3_12=0|p1_12=28|p2_12=28|p3_12=28|n1_12=4,8640,7560,5,2,2,2
T_12,a1_12=28|a2_12=28|a3_12=28|d1_12=0|d2_12=28|d3_12=28|p1_12=28|p2_12=28|p3_12=28|n1_12=4,8640,7560,5,2,2,2
U_12,a1_12=28|a2_12=0|a3_12=28|d1_12=0|d2_12=0|d3_12=28|p1_12=28|p2_12=28|p3_12=0|n1_12=4,8640,7560,5,2,2,2
V_12,a1_12=0|a2_12=28|a3_12=28|d1_12=28|d2_12=0|d3_12=28|p1_12=0|p2_12=28|p3_12=28|n1_12=4,8640,7560,5,2,2,2
W_12,a1_12=28|a2_12=0|a3_12=28|d1_12=0|d2_12=28|d3_12=0|p1_12=28|p2_12=0|p3_12=28|n1_12=0,8640,7560,5,2,2,2
X_12,a1_12=28|a2_12=0|a3_12=28|d1_12=28|d2_12=28|d3_12=0|p1_12=0|p2_12=0|p3_12=28|n1_12=0,8640,7560,5,2,2,2
Y_12,a1_12=28|a2_12=0|a3_12=28|d1_12=0|d2_12=0|d3_12=28|p1_12=0|p2_12=28|p3_12=28|n1_12=4,8640,7560,5,2,2,2
Z_12,a1_12=28|a2_12=0|a3_12=28|d1_12=28|d2_12=28|d3_12=28|p1_12=28|p2_12=0|p3_12=28|n1_12=4,8640,7560,5,2,2,2
AA_12,a1_12=0|a2_12=0|a3_12=28|d1_12=28|d2_12=0|d3_12=28|p1_12=28|p2_12=28|p3_12=28|n1_12=4,8640,7560,5,2,2,2
AB_12,a1_12=28|a2_12=0|a3_12=28|d1_12=0|d2_12=28|d3_12=0|p1_12=28|p2_12=28|p3_12=28|n1_12=4,8640,7560,5,2,2,2
AC_12,a1_12=0|a2_12=0|a3_12=28|d1_12=28|d2_12=28|d3_12=28|p1_12=28|p2_12=28|p3_12=0|n1_12=0,8640,7560,5,2,2,2
AD_12,a1_12=28|a2_12=0|a3_12=0|d1_12=28|d2_12=28|d3_12=28|p1_12=28|p2_12=0|p3_12=0|n1_12=0,8640,7560,5,2,2,2
AE_12,a1_12=0|a2_12=28|a3_12=0|d1_12=28|d2_12=28|d3_12=28|p1_12=28|p2_12=0|p3_12=28|n1_12=4,8640,7560,5,2,2,2
AF_12,a1_12=28|a2_12=28|a3_12=28|d1_12=28|d2_12=0|d3_12=0|p1_12=28|p2_12=28|p3_12=0|n1_12=4,8640,7560,5,2,2,2
AG_12,a1_12=28|a2_12=0|a3_12=28|d1_12=0|d2_12=28|d3_12=28|p1_12=28|p2_12=28|p3_12=28|n1_12=4,8640,7560,5,2,2,2
AH_12,a1_12=0|a2_12=28|a3_12=28|d1_12=28|d2_12=28|d3_12=0|p1_12=28|p2_12=28|p3_12=28|n1_12=4,8640,7560,5,2,2,2
AI_12,a1_12=28|a2_12=28|a3_12=28|d1_12=0|d2_12=0|d3_12=28|p1_12=28|p2_12=28|p3_12=28|n1_12=0,8640,7560,5,2,2,2
AJ_12,a1_12=0|a2_12=28|a3_12=28|d1_12=28|d2_12=28|d3_12=28|p1_12=28|p2_12=28|p3_12=28|n1_12=4,8640,7560,5,2,2,2
AK_12,a1_12=28|a2_12=28|a3_12=28|d1_12=28|d2_12=28|d3_12=0|p1_12=28|p2_12=28|p3_12=28|n1_12=0,8640,7560,5,2,2,2
AL_12,a1_12=28|a2_12=28|a3_12=28|d1_12=28|d2_12=28|d3_12=28|p1_12=28|p2_12=28|p3_12=0|n1_12=0,8640,7560,5,2,2,2
AM_12,a1_12=0|a2_12=28|a3_12=0|d1_12=28|d2_12=28|d3_12=0|p1_12=28|p2_12=28|p3_12=28|n1_12=4,8640,7560,5,2,2,2
AN_12,a1_12=0|a2_12=28|a3_12=28|d1_12=28|d2_12=0|d3_12=0|p1_12=28|p2_12=28|p3_12=28|n1_12=4,8640,7560,5,2,2,2
AO_12,a1_12=28|a2_12=0|a3_12=28|d1_12=0|d2_12=28|d3_12=28|p1_12=28|p2_12=28|p3_12=28|n1_12=4,8640,7560,6,2,3,2
AP_12,a1_12=28|a2_12=0|a3_12=28|d1_12=28|d2_12=28|d3_12=28|p1_12=28|p2_12=0|p3_12=0|n1_12=4,8640,7560,6,2,3,2
AQ_12,a1_12=0|a2_12=28|a3_12=28|d1_12=0|d2_12=28|d3_12=28|p1_12=28|p2_12=28|p3_12=28|n1_12=4,8640,7560,6,2,3,2
AR_12,a1_12=28|a2_12=0|a3_12=0|d1_12=0|d2_12=28|d3_12=28|p1_12=28|p2_12=28|p3_12=0|n1_12=4,8640,7560,6,2,3,2
AS_12,a1_12=0|a2_12=28|a3_12=28|d1_12=0|d2_12=28|d3_12=0|p1_12=28|p2_12=28|p3_12=28|n1_12=0,8640,7560,6,2,3,2
AT_12,a1_12=28|a2_12=28|a3_12=28|d1_12=28|d2_12=28|d3_12=28|p1_12=28|p2_12=28|p3_12=0|n1_12=4,8640,7560,6,2,3,2
AU_12,a1_12=0|a2_12=28|a3_12=0|d1_12=28|d2_12=0|d3_12=28|p1_12=0|p2_12=0|p3_12=28|n1_12=4,8640,7560,6,2,3,2
AV_12,a1_12=0|a2_12=28|a3_12=0|d1_12=28|d2_12=28|d3_12=0|p1_12=28|p2_12=28|p3_12=28|n1_12=4,8640,7560,6,2,3,2
AW_12,a1_12=0|a2_12=28|a3_12=28|d1_12=0|d2_12=0|d3_12=28|p1_12=28|p2_12=28|p3_12=0|n1_12=0,8640,7560,6,2,3,2
AX_12,a1_12=28|a2_12=0|a3_12=28|d1_12=28|d2_12=28|d3_12=28|p1_12=28|p2_12=28|p3_12=0|n1_12=0,8640,7560,6,2,3,2
AY_12,a1_12=0|a2_12=0|a3_12=28|d1_12=28|d2_12=28|d3_12=28|p1_12=0|p2_12=0|p3_12=0|n1_12=0,5160,4080,5,2,2,3
AZ_12,a1_12=28|a2_12=0|a3_12=28|d1_12=0|d2_12=0|d3_12=28|p1_12=0|p2_12=28|p3_12=28|n1_12=0,5160,4080,5,2,2,3
BA_12,a1_12=0|a2_12=28|a3_12=28|d1_12=28|d2_12=0|d3_12=0|p1_12=28|p2_12=28|p3_12=28|n1_12=0,5160,4080,5,2,2,3
BB_12,a1_12=0|a2_12=28|a3_12=28|d1_12=0|d2_12=28|d3_12=28|p1_12=0|p2_12=28|p3_12=0|n1_12=2,5160,4080,5,2,2,3
BC_12,a1_12=28|a2_12=28|a3_12=28|d1_12=28|d2_12=0|d3_12=28|p1_12=28|p2_12=28|p3_12=0|n1_12=0,5160,4080,5,2,2,3
BD_12,a1_12=28|a2_12=28|a3_12=28|d1_12=28|d2_12=28|d3_12=28|p1_12=28|p2_12=28|p3_12=28|n1_12=2,5160,4080,5,2,2,3
BE_12,a1_12=0|a2_12=28|a3_12=28|d1_12=28|d2_12=28|d3_12=28|p1_12=28|p2_12=0|p3_12=28|n1_12=2,5160,4080,5,2,2,3
BF_12,a1_12=28|a2_12=0|a3_12=0|d1_12=28|d2_12=0|d3_12=28|p1_12=28|p2_12=0|p3_12=0|n1_12=2,5160,4080,5,2,2,3
BG_12,a1_12=28|a2_12=28|a3_12=0|d1_12=28|d2_12=28|d3_12=0|p1_12=28|p2_12=28|p3_12=0|n1_12=2,5160,4080,5,2,2,3
BH_12,a1_12=28|a2_12=28|a3_12=28|d1_12=28|d2_12=0|d3_12=28|p1_12=28|p2_12=28|p3_12=28|n1_12=0,5160,4080,5,2,2,3

SECTION_DAYS_OFF
# EmployeeID_12, DayIndexes (start at zero)
A_12,7,24
B_12,25,26
C_12,3,16
D_12,11,12
E_12,1,5
F_12,10,17
G_12,13,27
H_12,8,22
I_12,0,23
J_12,10,13
K_12,0,13
L_12,24,25
M_12,25,26
N_12,12,27
O_12,3,25
P_12,7,8
Q_12,9,10
R_12,16,17
S_12,5,15
T_12,2,17
U_12,22,23
V_12,23,24
W_12,21,26
X_12,10,22
Y_12,7,14
Z_12,6,7
AA_12,19,20
AB_12,10,15
AC_12,5,17
AD_12,5,20
AE_12,24,25
AF_12,23,24
AG_12,9,21
AH_12,12,17
AI_12,14,25
AJ_12,11,12
AK_12,6,7
AL_12,0,24
AM_12,9,16
AN_12,13,14
AO_12,0,9
AP_12,3,23
AQ_12,3,18
AR_12,4,5
AS_12,3,4
AT_12,10,14
AU_12,18,19
AV_12,2,3
AW_12,15,16
AX_12,19,20
AY_12,8,16
AZ_12,19,20
BA_12,4,5
BB_12,18,19
BC_12,1,2
BD_12,14,17
BE_12,3,4
BF_12,24,25
BG_12,0,26
BH_12,0,1

SECTION_SHIFT_ON_REQUESTS
# EmployeeID_12, Day, ShiftID_12, Weight
A_12,1,a1_12,1
A_12,2,a1_12,1
A_12,3,a1_12,1
A_12,4,a1_12,1
A_12,5,a1_12,1
A_12,18,a3_12,3
B_12,10,a2_12,3
B_12,11,a2_12,3
B_12,12,a2_12,3
B_12,13,a2_12,3
B_12,14,a2_12,3
C_12,5,d2_12,1
C_12,10,p2_12,1
D_12,20,p2_12,1
D_12,21,p2_12,1
D_12,22,p2_12,1
E_12,15,d3_12,1
E_12,16,d3_12,1
E_12,17,d3_12,1
E_12,23,a3_12,2
F_12,7,p1_12,3
F_12,8,p1_12,3
F_12,13,a1_12,3
F_12,14,a1_12,3
F_12,18,d1_12,1
F_12,24,a3_12,2
G_12,5,a3_12,2
G_12,6,a3_12,2
G_12,7,a3_12,2
G_12,8,a3_12,2
G_12,9,a3_12,2
G_12,17,d3_12,1
G_12,18,d3_12,1
H_12,0,a3_12,2
H_12,1,a3_12,2
H_12,2,a3_12,2
H_12,16,p3_12,3
H_12,17,p3_12,3
H_12,18,p3_12,3
I_12,9,p2_12,2
I_12,10,p2_12,2
I_12,11,p2_12,2
I_12,12,p2_12,2
I_12,13,p2_12,2
I_12,24,a3_12,3
I_12,25,a3_12,3
J_12,15,a2_12,1
J_12,16,a2_12,1
J_12,21,n1_12,1
J_12,22,n1_12,1
J_12,23,n1_12,1
K_12,14,d2_12,3
K_12,19,a3_12,1
L_12,2,d2_12,1
N_12,5,a1_12,2
N_12,6,a1_12,2
N_12,14,d2_12,3
N_12,19,n1_12,3
O_12,5,p3_12,1
O_12,9,p3_12,3
O_12,10,p3_12,3
O_12,11,p3_12,3
O_12,12,p3_12,3
O_12,13,p3_12,3
O_12,17,a2_12,3
O_12,24,n1_12,2
P_12,1,a3_12,2
P_12,2,a3_12,2
P_12,3,a3_12,2
P_12,9,a3_12,1
P_12,10,a3_12,1
P_12,11,a3_12,1
P_12,12,a3_12,1
P_12,13,a3_12,1
P_12,20,d1_12,2
P_12,21,d1_12,2
P_12,22,d1_12,2
Q_12,0,p3_12,1
Q_12,1,p3_12,1
Q_12,2,p3_12,1
Q_12,16,d2_12,1
T_12,3,p3_12,1
T_12,4,p3_12,1
T_12,5,p3_12,1
T_12,6,p3_12,1
T_12,7,p3_12,1
T_12,21,p3_12,2
U_12,3,a1_12,2
U_12,4,a1_12,2
U_12,5,a1_12,2
U_12,11,a3_12,1
U_12,12,a3_12,1
U_12,13,a3_12,1
U_12,19,n1_12,1
V_12,3,p2_12,3
V_12,4,p2_12,3
V_12,5,p2_12,3
V_12,10,p3_12,2
V_12,20,p2_12,1
V_12,21,p2_12,1
V_12,22,p2_12,1
V_12,26,p3_12,2
W_12,7,a3_12,2
W_12,8,a3_12,2
W_12,14,d2_12,2
W_12,18,p3_12,2
W_12,19,p3_12,2
X_12,3,a3_12,1
X_12,11,a1_12,1
X_12,12,a1_12,1
X_12,13,a1_12,1
X_12,14,a1_12,1
AA_12,12,d3_12,1
AA_12,13,d3_12,1
AA_12,14,d3_12,1
AB_12,8,n1_12,1
AB_12,23,p1_12,1
AB_12,24,p1_12,1
AC_12,0,d2_12,2
AC_12,1,d2_12,2
AC_12,7,d2_12,3
AC_12,8,d2_12,3
AC_12,9,d2_12,3
AC_12,10,d2_12,3
AC_12,18,a3_12,2
AC_12,19,a3_12,2
AC_12,20,a3_12,2
AC_12,21,a3_12,2
AC_12,25,p1_12,1
AC_12,26,p1_12,1
AC_12,27,p1_12,1
AD_12,12,d3_12,3
AD_12,13,d3_12,3
AD_12,14,d3_12,3
AE_12,3,d2_12,1
AE_12,4,d2_12,1
AE_12,5,d2_12,1
AE_12,9,p3_12,2
AE_12,17,d3_12,1
AE_12,18,d3_12,1
AF_12,3,d1_12,2
AF_12,4,d1_12,2
AF_12,5,d1_12,2
AF_12,6,d1_12,2
AF_12,7,d1_12,2
AF_12,14,p1_12,3
AF_12,20,d1_12,3
AF_12,21,d1_12,3
AF_12,22,d1_12,3
AG_12,12,a3_12,3
AG_12,13,a3_12,3
AG_12,23,d3_12,1
AH_12,1,a3_12,3
AH_12,2,a3_12,3
AH_12,14,a3_12,3
AH_12,15,a3_12,3
AI_12,8,p2_12,1
AI_12,9,p2_12,1
AI_12,10,p2_12,1
AI_12,11,p2_12,1
AI_12,17,p2_12,2
AI_12,18,p2_12,2
AI_12,19,p2_12,2
AI_12,20,p2_12,2
AI_12,21,p2_12,2
AJ_12,18,n1_12,2
AJ_12,19,n1_12,2
AK_12,12,p3_12,2
AK_12,13,p3_12,2
AK_12,14,p3_12,2
AK_12,15,p3_12,2
AK_12,24,a2_12,1
AK_12,25,a2_12,1
AL_12,2,d1_12,2
AL_12,3,d1_12,2
AL_12,16,a3_12,3
AL_12,26,a3_12,1
AL_12,27,a3_12,1
AM_12,2,a2_12,2
AM_12,3,a2_12,2
AM_12,11,p3_12,2
AM_12,12,p3_12,2
AM_12,18,p1_12,1
AM_12,19,p1_12,1
AM_12,20,p1_12,1
AM_12,21,p1_12,1
AM_12,22,p1_12,1
AN_12,8,a3_12,2
AN_12,9,a3_12,2
AN_12,10,a3_12,2
AN_12,11,a3_12,2
AN_12,16,p1_12,3
AN_12,17,p1_12,3
AN_12,18,p1_12,3
AO_12,3,n1_12,3
AO_12,4,n1_12,3
AO_12,5,n1_12,3
AO_12,6,n1_12,3
AO_12,13,a3_12,2
AO_12,22,p1_12,1
AO_12,23,p1_12,1
AO_12,24,p1_12,1
AO_12,25,p1_12,1
AO_12,26,p1_12,1
AP_12,16,p1_12,3
AQ_12,4,a2_12,2
AQ_12,5,a2_12,2
AR_12,20,p1_12,2
AR_12,21,p1_12,2
AR_12,22,p1_12,2
AR_12,23,p1_12,2
AT_12,17,p2_12,1
AT_12,18,p2_12,1
AT_12,19,p2_12,1
AT_12,20,p2_12,1
AU_12,0,d3_12,3
AU_12,4,d1_12,3
AU_12,5,d1_12,3
AU_12,6,d1_12,3
AU_12,7,d1_12,3
AU_12,8,d1_12,3
AU_12,15,n1_12,3
AU_12,16,n1_12,3
AU_12,17,n1_12,3
AV_12,23,a2_12,1
AV_12,24,a2_12,1
AV_12,25,a2_12,1
AW_12,17,p2_12,2
AW_12,18,p2_12,2
AX_12,12,d2_12,1
AX_12,13,d2_12,1
AX_12,14,d2_12,1
AX_12,15,d2_12,1
AY_12,1,d2_12,1
AY_12,17,d3_12,1
AY_12,21,d1_12,1
AY_12,22,d1_12,1
AY_12,23,d1_12,1
AZ_12,0,a3_12,1
AZ_12,1,a3_12,1
AZ_12,2,a3_12,1
AZ_12,3,a3_12,1
AZ_12,4,a3_12,1
AZ_12,14,a1_12,3
BA_12,7,a3_12,2
BA_12,8,a3_12,2
BA_12,9,a3_12,2
BA_12,10,a3_12,2
BA_12,11,a3_12,2
BA_12,16,p3_12,3
BA_12,17,p3_12,3
BA_12,18,p3_12,3
BA_12,22,p3_12,1
BA_12,23,p3_12,1
BA_12,24,p3_12,1
BA_12,25,p3_12,1
BB_12,0,n1_12,3
BB_12,4,d2_12,2
BB_12,5,d2_12,2
BB_12,6,d2_12,2
BB_12,7,d2_12,2
BB_12,8,d2_12,2
BB_12,13,n1_12,1
BC_12,12,a3_12,1
BC_12,13,a3_12,1
BC_12,14,a3_12,1
BC_12,15,a3_12,1
BC_12,21,a1_12,1
BC_12,22,a1_12,1
BD_12,0,p1_12,1
BD_12,1,p1_12,1
BD_12,2,p1_12,1
BD_12,3,p1_12,1
BD_12,4,p1_12,1
BD_12,18,p2_12,1
BE_12,16,d2_12,1
BE_12,17,d2_12,1
BE_12,18,d2_12,1
BF_12,2,d3_12,1
BF_12,6,a1_12,3
BF_12,7,a1_12,3
BF_12,8,a1_12,3
BF_12,9,a1_12,3
BF_12,15,p1_12,3
BF_12,16,p1_12,3
BG_12,6,d1_12,2
BG_12,7,d1_12,2
BG_12,15,a2_12,3
BG_12,16,a2_12,3
BG_12,17,a2_12,3
BG_12,18,a2_12,3
BG_12,19,a2_12,3
BH_12,3,p2_12,2
BH_12,4,p2_12,2

SECTION_SHIFT_OFF_REQUESTS
# EmployeeID_12, Day, ShiftID_12, Weight
A_12,12,a3_12,2
A_12,13,a3_12,2
A_12,14,a3_12,2
D_12,0,a2_12,2
D_12,1,a2_12,2
D_12,2,a2_12,2
D_12,3,a2_12,2
E_12,7,p3_12,2
E_12,8,p3_12,2
E_12,9,p3_12,2
E_12,10,p3_12,2
E_12,11,p3_12,2
J_12,1,d2_12,3
J_12,2,d2_12,3
J_12,3,d2_12,3
K_12,2,a2_12,1
K_12,3,a2_12,1
L_12,26,a1_12,2
L_12,27,a1_12,2
M_12,2,p2_12,1
M_12,3,p2_12,1
M_12,4,p2_12,1
M_12,5,p2_12,1
M_12,6,p2_12,1
Q_12,20,p3_12,3
Q_12,21,p3_12,3
Q_12,22,p3_12,3
Q_12,23,p3_12,3
Q_12,24,p3_12,3
S_12,7,p1_12,3
S_12,8,p1_12,3
S_12,9,p1_12,3
S_12,16,p2_12,1
S_12,17,p2_12,1
S_12,18,p2_12,1
S_12,19,p2_12,1
S_12,20,p2_12,1
W_12,0,p3_12,2
W_12,1,p3_12,2
W_12,2,p3_12,2
W_12,3,p3_12,2
Y_12,3,n1_12,1
Y_12,4,n1_12,1
Y_12,5,n1_12,1
Y_12,21,a1_12,3
Y_12,22,a1_12,3
Y_12,23,a1_12,3
Y_12,24,a1_12,3
Z_12,8,p1_12,3
Z_12,9,p1_12,3
Z_12,16,d2_12,2
Z_12,17,d2_12,2
Z_12,18,d2_12,2
Z_12,19,d2_12,2
AA_12,1,a3_12,1
AA_12,2,a3_12,1
AA_12,3,a3_12,1
AA_12,4,a3_12,1
AB_12,1,p1_12,2
AB_12,2,p1_12,2
AB_12,17,p2_12,1
AB_12,18,p2_12,1
AB_12,19,p2_12,1
AD_12,2,p1_12,1
AD_12,18,d2_12,1
AD_12,19,d2_12,1
AD_12,24,d1_12,2
AD_12,25,d1_12,2
AD_12,26,d1_12,2
AD_12,27,d1_12,2
AJ_12,8,p1_12,3
AL_12,8,a3_12,3
AL_12,9,a3_12,3
AL_12,10,a3_12,3
AL_12,11,a3_12,3
AL_12,12,a3_12,3
AN_12,25,d1_12,3
AP_12,25,d3_12,3
AP_12,26,d3_12,3
AQ_12,20,p2_12,1
AQ_12,21,p2_12,1
AQ_12,22,p2_12,1
AR_12,9,p2_12,2
AR_12,10,p2_12,2
AR_12,11,p2_12,2
AR_12,12,p2_12,2
AS_12,6,p2_12,2
AS_12,7,p2_12,2
AS_12,8,p2_12,2
AS_12,9,p2_12,2
AS_12,10,p2_12,2
AS_12,17,p2_12,2
AU_12,22,p3_12,2
AV_12,0,n1_12,1
AV_12,1,n1_12,1
AV_12,7,d2_12,2
AV_12,8,d2_12,2
AV_12,9,d2_12,2
AV_12,10,d2_12,2
AV_12,11,d2_12,2
AW_12,1,p2_12,3
AW_12,2,p2_12,3
AW_12,3,p2_12,3
AW_12,4,p2_12,3
AW_12,9,a3_12,1
AW_12,10,a3_12,1
AX_12,22,d3_12,3
AY_12,10,d1_12,3
AY_12,11,d1_12,3
AY_12,12,d1_12,3
AY_12,13,d1_12,3
AZ_12,23,a1_12,2
AZ_12,24,a1_12,2
BB_12,20,n1_12,2
BB_12,21,n1_12,2
BB_12,22,n1_12,2
BC_12,3,a3_12,1
BC_12,4,a3_12,1
BC_12,5,a3_12,1
BC_12,6,a3_12,1
BE_12,26,d2_12,1
BE_12,27,d2_12,1
BH_12,12,a1_12,1
BH_12,13,a1_12,1
BH_12,14,a1_12,1
BH_12,15,a1_12,1
BH_12,16,a1_12,1
BH_12,24,p2_12,3

SECTION_COVER
# Day, ShiftID_12, Requirement, Weight for under, Weight for over
0,a1_12,5,100,1
0,a2_12,3,100,1
0,a3_12,5,100,1
0,d1_12,3,100,1
0,d2_12,5,100,1
0,d3_12,4,100,1
0,p1_12,4,100,1
0,p2_12,5,100,1
0,p3_12,4,100,1
0,n1_12,4,100,1
1,a1_12,4,100,1
1,a2_12,4,100,1
1,a3_12,3,100,1
1,d1_12,4,100,1
1,d2_12,4,100,1
1,d3_12,2,100,1
1,p1_12,4,100,1
1,p2_12,5,100,1
1,p3_12,6,100,1
1,n1_12,3,100,1
2,a1_12,2,100,1
2,a2_12,5,100,1
2,a3_12,4,100,1
2,d1_12,4,100,1
2,d2_12,4,100,1
2,d3_12,3,100,1
2,p1_12,6,100,1
2,p2_12,3,100,1
2,p3_12,4,100,1
2,n1_12,5,100,1
3,a1_12,3,100,1
3,a2_12,4,100,1
3,a3_12,4,100,1
3,d1_12,3,100,1
3,d2_12,4,100,1
3,d3_12,3,100,1
3,p1_12,4,100,1
3,p2_12,4,100,1
3,p3_12,4,100,1
3,n1_12,3,100,1
4,a1_12,4,100,1
4,a2_12,4,100,1
4,a3_12,6,100,1
4,d1_12,4,100,1
4,d2_12,4,100,1
4,d3_12,4,100,1
4,p1_12,4,100,1
4,p2_12,4,100,1
4,p3_12,4,100,1
4,n1_12,3,100,1
5,a1_12,3,100,1
5,a2_12,5,100,1
5,a3_12,5,100,1
5,d1_12,2,100,1
5,d2_12,3,100,1
5,d3_12,5,100,1
5,p1_12,5,100,1
5,p2_12,5,100,1
5,p3_12,5,100,1
5,n1_12,4,100,1
6,a1_12,2,100,1
6,a2_12,3,100,1
6,a3_12,2,100,1
6,d1_12,2,100,1
6,d2_12,2,100,1
6,d3_12,5,100,1
6,p1_12,3,100,1
6,p2_12,5,100,1
6,p3_12,3,100,1
6,n1_12,2,100,1
7,a1_12,6,100,1
7,a2_12,4,100,1
7,a3_12,3,100,1
7,d1_12,6,100,1
7,d2_12,6,100,1
7,d3_12,6,100,1
7,p1_12,5,100,1
7,p2_12,5,100,1
7,p3_12,4,100,1
7,n1_12,4,100,1
8,a1_12,3,100,1
8,a2_12,3,100,1
8,a3_12,3,100,1
8,d1_12,5,100,1
8,d2_12,2,100,1
8,d3_12,4,100,1
8,p1_12,4,100,1
8,p2_12,3,100,1
8,p3_12,3,100,1
8,n1_12,3,100,1
9,a1_12,3,100,1
9,a2_12,2,100,1
9,a3_12,3,100,1
9,d1_12,3,100,1
9,d2_12,5,100,1
9,d3_12,3,100,1
9,p1_12,2,100,1
9,p2_12,2,100,1
9,p3_12,4,100,1
9,n1_12,3,100,1
10,a1_12,3,100,1
10,a2_12,5,100,1
10,a3_12,2,100,1
10,d1_12,4,100,1
10,d2_12,3,100,1
10,d3_12,3,100,1
10,p1_12,2,100,1
10,p2_12,3,100,1
10,p3_12,3,100,1
10,n1_12,3,100,1
11,a1_12,4,100,1
11,a2_12,4,100,1
11,a3_12,3,100,1
11,d1_12,4,100,1
11,d2_12,5,100,1
11,d3_12,3,100,1
11,p1_12,4,100,1
11,p2_12,4,100,1
11,p3_12,4,100,1
11,n1_12,4,100,1
12,a1_12,2,100,1
12,a2_12,3,100,1
12,a3_12,3,100,1
12,d1_12,2,100,1
12,d2_12,2,100,1
12,d3_12,3,100,1
12,p1_12,5,100,1
12,p2_12,2,100,1
12,p3_12,3,100,1
12,n1_12,5,100,1
13,a1_12,5,100,1
13,a2_12,4,100,1
13,a3_12,3,100,1
13,d1_12,5,100,1
13,d2_12,4,100,1
13,d3_12,4,100,1
13,p1_12,3,100,1
13,p2_12,2,100,1
13,p3_12,2,100,1
13,n1_12,4,100,1
14,a1_12,6,100,1
14,a2_12,5,100,1
14,a3_12,4,100,1
14,d1_12,5,100,1
14,d2_12,6,100,1
14,d3_12,4,100,1
14,p1_12,3,100,1
14,p2_12,5,100,1
14,p3_12,5,100,1
14,n1_12,4,100,1
15,a1_12,2,100,1
15,a2_12,3,100,1
15,a3_12,2,100,1
15,d1_12,2,100,1
15,d2_12,3,100,1
15,d3_12,3,100,1
15,p1_12,4,100,1
15,p2_12,3,100,1
15,p3_12,3,100,1
15,n1_12,2,100,1
16,a1_12,3,100,1
16,a2_12,3,100,1
16,a3_12,3,100,1
16,d1_12,2,100,1
16,d2_12,4,100,1
16,d3_12,3,100,1
16,p1_12,3,100,1
16,p2_12,2,100,1
16,p3_12,2,100,1
16,n1_12,3,100,1
17,a1_12,5,100,1
17,a2_12,3,100,1
17,a3_12,4,100,1
17,d1_12,5,100,1
17,d2_12,3,100,1
17,d3_12,6,100,1
17,p1_12,6,100,1
17,p2_12,4,100,1
17,p3_12,4,100,1
17,n1_12,4,100,1
18,a1_12,4,100,1
18,a2_12,2,100,1
18,a3_12,4,100,1
18,d1_12,4,100,1
18,d2_12,2,100,1
18,d3_12,3,100,1
18,p1_12,3,100,1
18,p2_12,3,100,1
18,p3_12,4,100,1
18,n1_12,4,100,1
19,a1_12,2,100,1
19,a2_12,2,100,1
19,a3_12,3,100,1
19,d1_12,3,100,1
19,d2_12,3,100,1
19,d3_12,3,100,1
19,p1_12,2,100,1
19,p2_12,3,100,1
19,p3_12,4,100,1
19,n1_12,3,100,1
20,a1_12,5,100,1
20,a2_12,6,100,1
20,a3_12,4,100,1
20,d1_12,3,100,1
20,d2_12,5,100,1
20,d3_12,4,100,1
20,p1_12,6,100,1
20,p2_12,6,100,1
20,p3_12,5,100,1
20,n1_12,4,100,1
21,a1_12,3,100,1
21,a2_12,3,100,1
21,a3_12,4,100,1
21,d1_12,5,100,1
21,d2_12,4,100,1
21,d3_12,3,100,1
21,p1_12,3,100,1
21,p2_12,2,100,1
21,p3_12,3,100,1
21,n1_12,3,100,1
22,a1_12,3,100,1
22,a2_12,4,100,1
22,a3_12,2,100,1
22,d1_12,3,100,1
22,d2_12,4,100,1
22,d3_12,3,100,1
22,p1_12,5,100,1
22,p2_12,2,100,1
22,p3_12,2,100,1
22,n1_12,2,100,1
23,a1_12,2,100,1
23,a2_12,3,100,1
23,a3_12,3,100,1
23,d1_12,2,100,1
23,d2_12,2,100,1
23,d3_12,3,100,1
23,p1_12,2,100,1
23,p2_12,2,100,1
23,p3_12,3,100,1
23,n1_12,2,100,1
24,a1_12,4,100,1
24,a2_12,4,100,1
24,a3_12,2,100,1
24,d1_12,6,100,1
24,d2_12,4,100,1
24,d3_12,4,100,1
24,p1_12,4,100,1
24,p2_12,2,100,1
24,p3_12,4,100,1
24,n1_12,4,100,1
25,a1_12,5,100,1
25,a2_12,3,100,1
25,a3_12,4,100,1
25,d1_12,2,100,1
25,d2_12,5,100,1
25,d3_12,4,100,1
25,p1_12,5,100,1
25,p2_12,4,100,1
25,p3_12,4,100,1
25,n1_12,2,100,1
26,a1_12,3,100,1
26,a2_12,3,100,1
26,a3_12,4,100,1
26,d1_12,6,100,1
26,d2_12,4,100,1
26,d3_12,3,100,1
26,p1_12,5,100,1
26,p2_12,4,100,1
26,p3_12,2,100,1
26,n1_12,6,100,1
27,a1_12,3,100,1
27,a2_12,2,100,1
27,a3_12,3,100,1
27,d1_12,5,100,1
27,d2_12,3,100,1
27,d3_12,5,100,1
27,p1_12,4,100,1
27,p2_12,2,100,1
27,p3_12,3,100,1
27,n1_12,2,100,1
